n_res = 4;
rc = [ 19, 23, 24, 17 ];
n_tasks = 30;
d = [ 8, 9, 1, 4, 4, 8, 3, 3, 9, 6, 3, 5, 4, 9, 5, 9, 9, 7, 7, 8, 6, 10, 2, 1, 9, 3, 7, 10, 7, 9 ];
rr = [| 0, 1, 2, 4, 7, 8, 5, 0, 9, 2, 3, 6, 3, 3, 2, 1, 6, 5, 0, 7, 3, 8, 4, 10, 10, 0, 10, 6, 9, 0
      | 0, 8, 1, 6, 9, 4, 6, 6, 9, 0, 2, 4, 0, 5, 7, 4, 0, 8, 0, 4, 0, 0, 0, 8, 3, 8, 0, 4, 0, 7
      | 2, 1, 4, 0, 0, 7, 2, 7, 0, 5, 6, 9, 8, 5, 8, 4, 5, 5, 6, 8, 7, 8, 0, 1, 9, 3, 6, 6, 8, 8
      | 1, 6, 6, 9, 0, 0, 6, 7, 0, 0, 6, 2, 5, 9, 0, 0, 0, 6, 8, 0, 6, 2, 2, 1, 3, 0, 0, 8, 1, 9 |];
suc = [ { 2 }, 
        { 1 }, 
        { 4 }, 
        { 3 }, 
        { 6 }, 
        { 5 }, 
        { 8 }, 
        { 7 }, 
        { 10 }, 
        { 9 }, 
        { 12 }, 
        { 11 }, 
        { 14 }, 
        { 13 }, 
        { 16 }, 
        { 15 }, 
        { 18 }, 
        { 17 }, 
        { 20 }, 
        { 19 }, 
        { 22 }, 
        { 21 }, 
        { 24 }, 
        { 23 }, 
        { 26 }, 
        { 25 }, 
        { 28 }, 
        { 27 }, 
        { 30 }, 
        { 29 }]; 
